Welcome to the CBC MILP Solver 
Version: 2.10.12 
Build Date: Aug 20 2024 

command line - /opt/homebrew/bin/cbc computational_data/real_data/lp/wdbc_trial_003_margin.lp seconds 10.0 solve solu computational_data/real_data/solutions/wdbc_trial_003_margin.sol (default strategy 1)
 CoinLpIO::readLp(): Maximization problem reformulated as minimization
Coin0009I Switching back to maximization to get correct duals etc
seconds was changed from 1e+100 to 10
Continuous objective value is 111.045 - 0.00 seconds
Cgl0003I 0 fixed, 0 tightened bounds, 42 strengthened rows, 4 substitutions
Cgl0003I 0 fixed, 0 tightened bounds, 52 strengthened rows, 0 substitutions
Cgl0003I 0 fixed, 0 tightened bounds, 46 strengthened rows, 0 substitutions
Cgl0003I 0 fixed, 0 tightened bounds, 31 strengthened rows, 0 substitutions
Cgl0003I 0 fixed, 0 tightened bounds, 17 strengthened rows, 0 substitutions
Cgl0003I 0 fixed, 0 tightened bounds, 12 strengthened rows, 0 substitutions
Cgl0003I 0 fixed, 0 tightened bounds, 8 strengthened rows, 0 substitutions
Cgl0003I 0 fixed, 0 tightened bounds, 5 strengthened rows, 0 substitutions
Cgl0003I 0 fixed, 0 tightened bounds, 2 strengthened rows, 0 substitutions
Cgl0004I processed model has 68 rows, 43 columns (43 integer (43 of which binary)) and 759 elements
Cbc0038I Initial state - 3 integers unsatisfied sum - 1
Cbc0038I Pass   1: suminf.    0.11111 (1) obj. 109.896 iterations 7
Cbc0038I Solution found of 109.007
Cbc0038I Before mini branch and bound, 40 integers at bound fixed and 0 continuous
Cbc0038I Full problem 68 rows 43 columns, reduced to 0 rows 0 columns
Cbc0038I Mini branch and bound did not improve solution (0.01 seconds)
Cbc0038I Round again with cutoff of 109.185
Cbc0038I Pass   2: suminf.    0.11111 (1) obj. 109.896 iterations 0
Cbc0038I Pass   3: suminf.    0.17779 (1) obj. 109.185 iterations 5
Cbc0038I Pass   4: suminf.    0.44444 (1) obj. 109.452 iterations 1
Cbc0038I Pass   5: suminf.    1.40001 (4) obj. 109.185 iterations 8
Cbc0038I Pass   6: suminf.    1.40001 (4) obj. 109.185 iterations 2
Cbc0038I Pass   7: suminf.    1.17779 (3) obj. 109.185 iterations 5
Cbc0038I Pass   8: suminf.    0.71110 (2) obj. 109.185 iterations 2
Cbc0038I Pass   9: suminf.    0.40001 (2) obj. 109.185 iterations 5
Cbc0038I Pass  10: suminf.    0.71110 (2) obj. 109.185 iterations 5
Cbc0038I Pass  11: suminf.    1.40001 (4) obj. 109.185 iterations 9
Cbc0038I Pass  12: suminf.    1.40001 (4) obj. 109.185 iterations 5
Cbc0038I Pass  13: suminf.    1.17779 (3) obj. 109.185 iterations 1
Cbc0038I Pass  14: suminf.    0.71110 (2) obj. 109.185 iterations 1
Cbc0038I Pass  15: suminf.    0.40001 (2) obj. 109.185 iterations 1
Cbc0038I Pass  16: suminf.    0.71110 (2) obj. 109.185 iterations 1
Cbc0038I Pass  17: suminf.    1.59998 (4) obj. 109.185 iterations 12
Cbc0038I Pass  18: suminf.    0.84446 (3) obj. 109.185 iterations 5
Cbc0038I Pass  19: suminf.    1.17779 (3) obj. 109.185 iterations 1
Cbc0038I Pass  20: suminf.    0.84446 (3) obj. 109.185 iterations 1
Cbc0038I Pass  21: suminf.    0.71110 (3) obj. 109.185 iterations 17
Cbc0038I Pass  22: suminf.    0.40001 (2) obj. 109.185 iterations 12
Cbc0038I Pass  23: suminf.    0.71110 (2) obj. 109.185 iterations 4
Cbc0038I Pass  24: suminf.    1.59998 (4) obj. 109.185 iterations 23
Cbc0038I Pass  25: suminf.    0.84446 (3) obj. 109.185 iterations 10
Cbc0038I Pass  26: suminf.    1.17779 (3) obj. 109.185 iterations 1
Cbc0038I Pass  27: suminf.    0.84446 (3) obj. 109.185 iterations 1
Cbc0038I Pass  28: suminf.    1.59998 (4) obj. 109.185 iterations 25
Cbc0038I Pass  29: suminf.    0.84446 (3) obj. 109.185 iterations 8
Cbc0038I Pass  30: suminf.    1.17779 (3) obj. 109.185 iterations 5
Cbc0038I Pass  31: suminf.    0.84446 (3) obj. 109.185 iterations 1
Cbc0038I No solution found this major pass
Cbc0038I Before mini branch and bound, 26 integers at bound fixed and 0 continuous
Cbc0038I Full problem 68 rows 43 columns, reduced to 14 rows 7 columns
Cbc0038I Mini branch and bound did not improve solution (0.01 seconds)
Cbc0038I After 0.01 seconds - Feasibility pump exiting with objective of 109.007 - took 0.00 seconds
Cbc0012I Integer solution of 109.00745 found by feasibility pump after 0 iterations and 0 nodes (0.01 seconds)
Cbc0031I 5 added rows had average density of 21.6
Cbc0013I At root node, 13 cuts changed objective from 110.78523 to 109.00745 in 2 passes
Cbc0014I Cut generator 0 (Probing) - 2 row cuts average 2.0 elements, 0 column cuts (0 active)  in 0.000 seconds - new frequency is 1
Cbc0014I Cut generator 1 (Gomory) - 7 row cuts average 17.7 elements, 0 column cuts (0 active)  in 0.000 seconds - new frequency is 1
Cbc0014I Cut generator 2 (Knapsack) - 6 row cuts average 9.0 elements, 0 column cuts (0 active)  in 0.000 seconds - new frequency is 1
Cbc0014I Cut generator 3 (Clique) - 0 row cuts average 0.0 elements, 0 column cuts (0 active)  in 0.000 seconds - new frequency is -100
Cbc0014I Cut generator 4 (MixedIntegerRounding2) - 1 row cuts average 25.0 elements, 0 column cuts (0 active)  in 0.000 seconds - new frequency is 1
Cbc0014I Cut generator 5 (FlowCover) - 0 row cuts average 0.0 elements, 0 column cuts (0 active)  in 0.000 seconds - new frequency is -100
Cbc0014I Cut generator 6 (TwoMirCuts) - 8 row cuts average 19.5 elements, 0 column cuts (0 active)  in 0.000 seconds - new frequency is -100
Cbc0014I Cut generator 7 (ZeroHalf) - 3 row cuts average 11.0 elements, 0 column cuts (0 active)  in 0.002 seconds - new frequency is 1
Cbc0001I Search completed - best objective 109.007452, took 20 iterations and 0 nodes (0.01 seconds)
Cbc0035I Maximum depth 0, 16 variables fixed on reduced cost
Cuts at root node changed objective from 110.785 to 109.007
Probing was tried 2 times and created 2 cuts of which 0 were active after adding rounds of cuts (0.000 seconds)
Gomory was tried 2 times and created 7 cuts of which 0 were active after adding rounds of cuts (0.000 seconds)
Knapsack was tried 2 times and created 6 cuts of which 0 were active after adding rounds of cuts (0.000 seconds)
Clique was tried 2 times and created 0 cuts of which 0 were active after adding rounds of cuts (0.000 seconds)
MixedIntegerRounding2 was tried 2 times and created 1 cuts of which 0 were active after adding rounds of cuts (0.000 seconds)
FlowCover was tried 2 times and created 0 cuts of which 0 were active after adding rounds of cuts (0.000 seconds)
TwoMirCuts was tried 2 times and created 8 cuts of which 0 were active after adding rounds of cuts (0.000 seconds)
ZeroHalf was tried 2 times and created 3 cuts of which 0 were active after adding rounds of cuts (0.002 seconds)

Result - Optimal solution found

Objective value:                109.00745200
Enumerated nodes:               0
Total iterations:               20
Time (CPU seconds):             0.01
Time (Wallclock seconds):       0.02

Total time (CPU seconds):       0.01   (Wallclock seconds):       0.02

